
n_res = 4;
rcap = [12, 11, 318, 267];
rtype = [1, 1, 2, 2];
n_tasks = 100;
modes =  [{1, 2, 3}, {4, 5, 6}, {7, 8, 9}, {10, 11, 12}, {13, 14, 15}, {16, 17, 18}, {19, 20, 21}, {22, 23, 24}, {25, 26, 27}, {28, 29, 30}, {31, 32, 33}, {34, 35, 36}, {37, 38, 39}, {40, 41, 42}, {43, 44, 45}, {46, 47, 48}, {49, 50, 51}, {52, 53, 54}, {55, 56, 57}, {58, 59, 60}, {61, 62, 63}, {64, 65, 66}, {67, 68, 69}, {70, 71, 72}, {73, 74, 75}, {76, 77, 78}, {79, 80, 81}, {82, 83, 84}, {85, 86, 87}, {88, 89, 90}, {91, 92, 93}, {94, 95, 96}, {97, 98, 99}, {100, 101, 102}, {103, 104, 105}, {106, 107, 108}, {109, 110, 111}, {112, 113, 114}, {115, 116, 117}, {118, 119, 120}, {121, 122, 123}, {124, 125, 126}, {127, 128, 129}, {130, 131, 132}, {133, 134, 135}, {136, 137, 138}, {139, 140, 141}, {142, 143, 144}, {145, 146, 147}, {148, 149, 150}, {151, 152, 153}, {154, 155, 156}, {157, 158, 159}, {160, 161, 162}, {163, 164, 165}, {166, 167, 168}, {169, 170, 171}, {172, 173, 174}, {175, 176, 177}, {178, 179, 180}, {181, 182, 183}, {184, 185, 186}, {187, 188, 189}, {190, 191, 192}, {193, 194, 195}, {196, 197, 198}, {199, 200, 201}, {202, 203, 204}, {205, 206, 207}, {208, 209, 210}, {211, 212, 213}, {214, 215, 216}, {217, 218, 219}, {220, 221, 222}, {223, 224, 225}, {226, 227, 228}, {229, 230, 231}, {232, 233, 234}, {235, 236, 237}, {238, 239, 240}, {241, 242, 243}, {244, 245, 246}, {247, 248, 249}, {250, 251, 252}, {253, 254, 255}, {256, 257, 258}, {259, 260, 261}, {262, 263, 264}, {265, 266, 267}, {268, 269, 270}, {271, 272, 273}, {274, 275, 276}, {277, 278, 279}, {280, 281, 282}, {283, 284, 285}, {286, 287, 288}, {289, 290, 291}, {292, 293, 294}, {295, 296, 297}, {298, 299, 300}];
succ =  [{30, 19, 18, 17, 16, 7}, {20, 19, 14, 4}, {17, 15, 7}, {35, 30, 29, 24, 22, 21, 18, 17}, {35, 23, 22, 21, 20, 19, 14}, {30, 28, 23, 16, 12}, {35, 21, 14, 12}, {23, 21, 18, 12}, {23, 18, 12}, {47, 35, 30, 28, 22, 20, 17}, {41, 29, 27, 22, 20, 18}, {47, 41, 31, 29, 27, 26, 22, 20}, {27, 23, 21, 18}, {47, 36, 31, 29, 28, 27, 26, 25, 24}, {36, 35, 34, 33, 31, 29, 27, 25, 23}, {47, 41, 40, 36, 34, 33, 32, 31, 27, 25}, {40, 34, 33, 31, 27, 26, 25, 23}, {47, 40, 36, 33, 32, 31, 28, 25}, {36, 31, 29, 28, 26, 25}, {34, 25, 24}, {43, 41, 38, 36, 33, 32}, {51, 48, 43, 42, 40, 39, 38, 36}, {53, 51, 48, 43, 38, 32}, {38, 33, 32}, {51, 48, 43, 38, 37}, {53, 51, 43, 32}, {53, 49, 48, 46, 45, 44, 43, 42, 39}, {58, 53, 48, 44, 43, 42, 38}, {48, 46, 45, 40, 39}, {46, 45, 43, 37}, {67, 53, 52, 51, 49, 46, 44, 42}, {52, 46, 45, 37}, {56, 51, 49, 48, 45, 39}, {53, 48, 45, 44, 39}, {60, 55, 51, 49, 46, 43}, {67, 60, 58, 57, 56, 55, 53, 52, 50, 49}, {67, 58, 49, 44, 42}, {49, 46, 45}, {67, 64, 62, 60, 58, 57, 55, 52, 50}, {67, 59, 57, 49, 44}, {67, 64, 59, 58, 55, 54, 52}, {60, 57, 56, 55, 54, 50}, {71, 67, 61, 59, 57, 56, 52}, {71, 65, 64, 63, 61, 56, 54}, {70, 67, 63, 62, 60, 57, 55}, {70, 56, 50}, {71, 62, 61, 60, 59, 58}, {71, 65, 62, 57, 52}, {65, 64, 61, 54}, {71, 69, 63, 61, 59}, {69, 63, 61, 59, 58}, {76, 75, 70, 69, 68, 66, 63}, {75, 71, 68, 63, 61}, {76, 75, 70, 68, 62}, {81, 80, 71, 69, 61}, {68, 66, 62}, {75, 72, 69, 68, 66}, {81, 80, 77, 76, 75, 73, 66}, {73, 68, 65}, {86, 83, 82, 74, 73, 72, 68}, {77, 76, 73, 72, 66}, {87, 83, 77, 73, 72, 69}, {87, 86, 83, 82, 81, 79, 74, 73, 72}, {99, 87, 83, 82, 81, 80, 79, 78, 72}, {99, 86, 82, 79, 75, 74, 72}, {100, 97, 89, 87, 86, 83, 82, 79, 74}, {98, 89, 86, 82, 80, 79, 74, 72}, {100, 99, 98, 97, 95, 90, 87, 84, 81, 80, 79, 77}, {99, 97, 89, 86, 82, 79, 74}, {100, 99, 89, 86, 82, 79, 74}, {99, 97, 90, 89, 88, 85, 83, 79, 78}, {100, 97, 96, 95, 90, 88, 85, 84}, {99, 97, 95, 90, 88, 78}, {95, 90, 88, 85, 78}, {98, 97, 96, 95, 94, 92, 89, 84}, {98, 96, 95, 89, 84, 79}, {93, 88, 85}, {96, 92, 84}, {94, 93, 92, 91}, {96, 94, 93, 91}, {93, 92, 89}, {93, 92, 91}, {98, 95, 92}, {93, 91}, {92, 91}, {95, 91}, {92, 91}, {94}, {91}, {92}, {}, {}, {}, {}, {}, {}, {}, {}, {}, {}];
n_opt = 300;
dur = [5, 10, 10, 2, 6, 7, 3, 7, 9, 3, 5, 9, 1, 9, 10, 6, 8, 10, 2, 4, 6, 5, 6, 7, 8, 9, 10, 4, 5, 7, 6, 8, 10, 6, 6, 10, 1, 5, 9, 1, 3, 6, 3, 5, 6, 4, 7, 8, 7, 8, 10, 3, 6, 7, 5, 7, 8, 2, 3, 6, 1, 3, 9, 4, 8, 9, 2, 6, 7, 6, 7, 10, 4, 4, 10, 2, 7, 10, 2, 5, 9, 3, 4, 5, 1, 4, 8, 5, 8, 9, 5, 9, 10, 2, 3, 10, 6, 7, 9, 1, 8, 9, 6, 8, 10, 4, 7, 9, 1, 1, 3, 1, 9, 9, 5, 10, 10, 2, 4, 6, 1, 10, 10, 1, 3, 10, 1, 3, 9, 2, 6, 9, 5, 8, 10, 2, 3, 10, 9, 9, 10, 2, 2, 6, 3, 7, 10, 1, 3, 7, 3, 3, 9, 4, 5, 7, 1, 2, 7, 4, 4, 10, 1, 2, 6, 3, 8, 10, 1, 5, 5, 4, 8, 10, 4, 6, 9, 4, 5, 5, 1, 4, 10, 3, 6, 10, 2, 2, 8, 1, 3, 5, 1, 6, 7, 6, 7, 10, 1, 2, 8, 4, 6, 8, 7, 9, 10, 8, 9, 9, 4, 6, 7, 2, 8, 10, 1, 4, 5, 3, 3, 7, 1, 1, 8, 1, 4, 10, 1, 5, 6, 2, 3, 9, 3, 5, 5, 2, 4, 10, 1, 4, 6, 1, 3, 7, 3, 7, 7, 1, 3, 10, 5, 7, 8, 1, 8, 9, 1, 7, 10, 3, 8, 9, 2, 3, 3, 2, 3, 7, 3, 4, 9, 4, 6, 9, 1, 6, 10, 3, 6, 8, 2, 6, 7, 1, 1, 5, 2, 2, 3, 6, 7, 9, 1, 6, 9, 4, 7, 10];
rreq = [|4, 3, 0, 5, 0, 2, 3, 3, 3, 0, 0, 3, 0, 2, 1, 0, 0, 4, 4, 3, 2, 0, 2, 0, 0, 4, 4, 5, 5, 0, 0, 0, 2, 4, 0, 0, 4, 4, 4, 0, 0, 0, 4, 0, 0, 2, 0, 1, 2, 2, 0, 1, 0, 0, 5, 4, 0, 4, 4, 0, 0, 3, 0, 0, 2, 0, 4, 0, 0, 0, 3, 3, 0, 3, 0, 0, 1, 0, 0, 1, 1, 0, 4, 0, 0, 2, 2, 4, 0, 3, 0, 0, 0, 5, 0, 0, 0, 3, 3, 0, 0, 2, 4, 0, 0, 1, 1, 1, 0, 0, 4, 0, 3, 0, 0, 3, 0, 0, 1, 1, 0, 0, 0, 3, 3, 3, 4, 2, 2, 3, 0, 0, 4, 0, 0, 0, 1, 0, 0, 1, 0, 3, 0, 1, 4, 0, 4, 0, 3, 2, 2, 1, 1, 0, 3, 0, 0, 0, 2, 2, 1, 0, 0, 0, 0, 3, 0, 0, 0, 3, 2, 0, 0, 0, 0, 1, 0, 0, 0, 0, 0, 0, 0, 0, 0, 3, 3, 0, 0, 0, 0, 3, 3, 0, 2, 5, 3, 0, 0, 0, 2, 0, 1, 0, 2, 2, 2, 0, 2, 0, 0, 1, 0, 4, 0, 0, 0, 3, 3, 5, 0, 2, 0, 0, 1, 1, 0, 0, 0, 0, 0, 4, 4, 3, 0, 4, 4, 0, 2, 2, 4, 3, 3, 0, 1, 1, 0, 0, 0, 2, 2, 0, 4, 3, 3, 0, 0, 0, 4, 3, 0, 0, 1, 1, 5, 4, 2, 0, 3, 0, 4, 3, 2, 4, 0, 0, 0, 2, 2, 2, 0, 1, 0, 4, 0, 0, 0, 0, 0, 3, 3, 2, 2, 0, 3, 3, 0, 3, 0, 0
 |0, 0, 1, 0, 4, 0, 0, 0, 0, 4, 3, 0, 5, 0, 0, 5, 3, 0, 0, 0, 0, 4, 0, 2, 4, 0, 0, 0, 0, 2, 4, 4, 0, 0, 2, 2, 0, 0, 0, 1, 1, 1, 0, 4, 4, 0, 2, 0, 0, 0, 2, 0, 2, 1, 0, 0, 3, 0, 0, 2, 2, 0, 1, 5, 0, 5, 0, 1, 1, 2, 0, 0, 5, 0, 3, 3, 0, 3, 5, 0, 0, 4, 0, 4, 3, 0, 0, 0, 1, 0, 4, 4, 2, 0, 2, 2, 4, 0, 0, 4, 3, 0, 0, 3, 3, 0, 0, 0, 1, 1, 0, 3, 0, 3, 3, 0, 3, 5, 0, 0, 5, 5, 5, 0, 0, 0, 0, 0, 0, 0, 1, 1, 0, 3, 2, 3, 0, 1, 2, 0, 2, 0, 2, 0, 0, 3, 0, 5, 0, 0, 0, 0, 0, 3, 0, 3, 3, 3, 0, 0, 0, 4, 3, 3, 2, 0, 2, 2, 4, 0, 0, 1, 1, 1, 4, 0, 3, 3, 2, 2, 5, 4, 4, 4, 4, 0, 0, 3, 2, 2, 2, 0, 0, 3, 0, 0, 0, 3, 2, 1, 0, 5, 0, 2, 0, 0, 0, 4, 0, 2, 4, 0, 3, 0, 3, 3, 3, 0, 0, 0, 3, 0, 5, 4, 0, 0, 3, 3, 5, 3, 3, 0, 0, 0, 2, 0, 0, 3, 0, 0, 0, 0, 0, 3, 0, 0, 2, 1, 1, 0, 0, 1, 0, 0, 0, 5, 4, 4, 0, 0, 1, 3, 0, 0, 0, 0, 0, 5, 0, 3, 0, 0, 0, 0, 3, 3, 4, 0, 0, 0, 1, 0, 4, 0, 3, 3, 1, 1, 5, 0, 0, 0, 0, 4, 0, 0, 3, 0, 3, 3
 |0, 9, 0, 0, 0, 2, 0, 0, 2, 3, 0, 0, 0, 0, 6, 0, 3, 0, 0, 2, 0, 0, 0, 0, 0, 5, 4, 0, 0, 0, 2, 1, 2, 8, 0, 0, 6, 4, 3, 0, 6, 5, 0, 6, 0, 0, 4, 4, 0, 0, 0, 5, 2, 2, 5, 0, 4, 0, 6, 4, 8, 0, 0, 3, 2, 0, 10, 0, 6, 9, 0, 6, 7, 0, 0, 0, 0, 4, 7, 6, 4, 7, 7, 6, 4, 4, 3, 5, 0, 3, 0, 7, 6, 0, 0, 1, 0, 7, 6, 0, 7, 0, 7, 6, 0, 0, 4, 0, 7, 0, 3, 0, 0, 0, 9, 9, 8, 2, 0, 0, 5, 0, 3, 3, 2, 1, 7, 7, 6, 0, 0, 0, 5, 0, 0, 0, 0, 0, 10, 10, 0, 0, 7, 0, 8, 0, 0, 4, 0, 4, 0, 3, 2, 9, 0, 0, 6, 0, 6, 0, 4, 0, 0, 0, 0, 9, 8, 0, 0, 0, 3, 9, 0, 0, 10, 10, 10, 9, 0, 7, 9, 5, 3, 0, 1, 0, 8, 0, 0, 0, 0, 0, 9, 7, 0, 5, 3, 0, 0, 2, 2, 10, 8, 4, 0, 6, 5, 10, 9, 8, 0, 7, 0, 0, 8, 0, 8, 6, 0, 0, 7, 7, 0, 8, 0, 9, 9, 0, 3, 2, 1, 6, 0, 2, 10, 0, 6, 0, 4, 0, 0, 5, 0, 1, 0, 0, 9, 0, 5, 9, 6, 0, 10, 8, 7, 5, 5, 4, 6, 0, 6, 0, 0, 0, 0, 0, 7, 4, 0, 0, 8, 0, 0, 2, 2, 1, 0, 0, 7, 8, 0, 3, 0, 4, 3, 4, 0, 3, 6, 6, 5, 8, 6, 0, 0, 0, 0, 7, 5, 3
 |7, 0, 6, 8, 4, 0, 8, 5, 0, 0, 2, 1, 7, 4, 0, 9, 0, 8, 8, 0, 3, 8, 8, 7, 1, 0, 0, 4, 3, 2, 0, 0, 0, 0, 7, 6, 0, 0, 0, 10, 0, 0, 9, 0, 8, 7, 0, 0, 8, 7, 7, 0, 0, 0, 0, 2, 0, 6, 0, 0, 0, 1, 1, 0, 0, 2, 0, 4, 0, 0, 1, 0, 0, 5, 1, 2, 1, 0, 0, 0, 0, 0, 0, 0, 0, 0, 0, 0, 6, 0, 2, 0, 0, 9, 5, 0, 5, 0, 0, 7, 0, 7, 0, 0, 3, 10, 0, 6, 0, 4, 0, 10, 10, 9, 0, 0, 0, 0, 3, 1, 0, 9, 0, 0, 0, 0, 0, 0, 0, 7, 6, 5, 0, 5, 4, 7, 7, 7, 0, 0, 10, 8, 0, 6, 0, 7, 7, 0, 2, 0, 7, 0, 0, 0, 9, 9, 0, 2, 0, 7, 0, 7, 10, 8, 5, 0, 0, 2, 1, 1, 0, 0, 5, 3, 0, 0, 0, 0, 3, 0, 0, 0, 0, 8, 0, 6, 0, 8, 8, 6, 5, 5, 0, 0, 2, 0, 0, 6, 8, 0, 0, 0, 0, 0, 8, 0, 0, 0, 0, 0, 1, 0, 1, 6, 0, 6, 0, 0, 7, 9, 0, 0, 4, 0, 4, 0, 0, 10, 0, 0, 0, 0, 8, 0, 0, 4, 0, 4, 0, 2, 10, 0, 8, 0, 8, 6, 0, 8, 0, 0, 0, 2, 0, 0, 0, 0, 0, 0, 0, 6, 0, 9, 8, 6, 7, 6, 0, 0, 3, 1, 0, 7, 7, 0, 0, 0, 7, 7, 0, 0, 7, 0, 8, 0, 0, 0, 1, 0, 0, 0, 0, 0, 0, 4, 6, 3, 3, 0, 0, 0|];